S = 26;
P = 20;
Start = [16, 6, 18, 12, 0, 11, 15, 9, 10, 19, 4, 17, 0, 2, 20, 14, 7, 0, 8, 0, 0, 5, 3, 1, 0, 13];
Goal = [2, 19, 8, 15, 13, 12, 0, 0, 9, 7, 14, 17, 18, 3, 11, 20, 4, 0, 16, 1, 5, 6, 0, 0, 10, 0];
Can_swap = [true, true, false, false, false, false, false, true, true, true, false, true, false, false, false, true, true, true, false, true];
